c preprocessed version of 1i0v_graph, 100 vertices, 1207 edges
p td 100 1207
98 99
97 99
97 98
96 98
96 97
95 97
95 96
94 96
94 95
93 95
93 94
92 97
92 95
92 94
92 93
91 99
91 98
91 97
91 96
91 95
91 94
91 93
91 92
90 99
90 97
90 92
90 91
89 97
89 96
89 91
89 90
88 97
88 96
88 95
88 94
88 93
88 91
88 90
88 89
87 99
87 98
87 97
87 96
87 91
87 90
87 89
87 88
86 98
86 97
86 96
86 95
86 94
86 91
86 88
86 87
85 98
85 96
85 89
85 87
85 86
84 98
84 97
84 96
84 87
84 86
84 85
83 98
83 96
83 86
83 85
83 84
82 98
82 86
82 85
82 84
82 83
81 84
81 83
81 82
80 82
80 81
79 83
79 82
79 81
79 80
78 83
78 81
78 80
78 79
77 86
77 84
77 83
77 82
77 81
77 80
77 79
77 78
76 86
76 85
76 84
76 83
76 82
76 81
76 80
76 79
76 78
76 77
75 98
75 96
75 88
75 87
75 86
75 85
75 84
75 83
75 82
75 81
75 77
75 76
74 98
74 86
74 85
74 84
74 83
74 82
74 81
74 80
74 77
74 76
74 75
73 98
73 97
73 96
73 94
73 88
73 87
73 86
73 85
73 84
73 83
73 82
73 76
73 75
73 74
72 96
72 89
72 88
72 87
72 86
72 85
72 82
72 76
72 75
72 74
72 73
71 97
71 96
71 94
71 93
71 91
71 90
71 89
71 88
71 87
71 86
71 85
71 73
71 72
70 89
70 88
70 73
70 72
70 71
69 96
69 94
69 88
69 86
69 75
69 73
69 72
69 71
69 70
68 94
68 89
68 88
68 71
68 70
68 69
67 70
67 69
67 68
66 69
66 68
66 67
65 69
65 67
65 66
64 76
64 74
64 73
64 72
64 70
64 69
64 68
64 67
64 66
64 65
63 69
63 65
63 64
62 70
62 67
62 66
62 65
62 64
62 63
61 63
61 62
60 72
60 70
60 68
60 67
60 65
60 64
60 63
60 62
60 61
59 89
59 87
59 85
59 74
59 72
59 71
59 70
59 68
59 64
59 62
59 61
59 60
58 85
58 74
58 73
58 72
58 71
58 70
58 69
58 68
58 67
58 66
58 65
58 64
58 63
58 62
58 61
58 60
58 59
57 89
57 86
57 85
57 84
57 82
57 76
57 75
57 74
57 73
57 72
57 71
57 70
57 69
57 64
57 63
57 61
57 60
57 59
57 58
56 96
56 88
56 86
56 85
56 76
56 75
56 74
56 73
56 72
56 71
56 70
56 69
56 68
56 67
56 66
56 65
56 64
56 63
56 60
56 58
56 57
55 86
55 85
55 82
55 77
55 76
55 75
55 74
55 73
55 72
55 69
55 65
55 64
55 63
55 58
55 57
55 56
54 98
54 96
54 94
54 88
54 87
54 86
54 85
54 84
54 83
54 82
54 77
54 76
54 75
54 74
54 73
54 72
54 71
54 70
54 69
54 64
54 58
54 57
54 56
54 55
53 86
53 83
53 80
53 78
53 77
53 76
53 75
53 74
53 73
53 64
53 57
53 55
53 54
52 98
52 96
52 86
52 85
52 84
52 83
52 82
52 81
52 79
52 78
52 77
52 76
52 75
52 74
52 73
52 55
52 54
52 53
51 83
51 79
51 78
51 77
51 76
51 75
51 55
51 53
51 52
50 86
50 84
50 83
50 79
50 78
50 77
50 75
50 54
50 53
50 52
50 51
49 83
49 81
49 79
49 78
49 77
49 75
49 52
49 51
49 50
48 84
48 83
48 82
48 81
48 79
48 78
48 77
48 76
48 75
48 74
48 52
48 50
48 49
47 98
47 85
47 84
47 83
47 82
47 81
47 79
47 77
47 52
47 49
47 48
46 98
46 96
46 86
46 85
46 84
46 83
46 82
46 81
46 78
46 77
46 76
46 75
46 74
46 73
46 54
46 53
46 52
46 51
46 50
46 49
46 48
46 47
45 98
45 86
45 84
45 83
45 52
45 50
45 47
45 46
44 99
44 98
44 97
44 96
44 95
44 91
44 87
44 86
44 85
44 84
44 83
44 82
44 77
44 75
44 73
44 54
44 52
44 50
44 48
44 47
44 46
44 45
43 98
43 96
43 86
43 50
43 46
43 45
43 44
42 98
42 97
42 96
42 95
42 94
42 91
42 88
42 87
42 86
42 84
42 83
42 75
42 73
42 54
42 52
42 50
42 46
42 45
42 44
42 43
41 96
41 95
41 94
41 93
41 91
41 88
41 86
41 75
41 73
41 54
41 44
41 43
41 42
40 98
40 96
40 86
40 84
40 83
40 77
40 76
40 75
40 73
40 54
40 53
40 52
40 51
40 50
40 49
40 48
40 46
40 45
40 44
40 43
40 42
40 41
39 96
39 95
39 94
39 86
39 75
39 73
39 54
39 52
39 51
39 50
39 43
39 42
39 41
39 40
38 98
38 96
38 94
38 88
38 86
38 85
38 84
38 83
38 82
38 77
38 76
38 75
38 74
38 73
38 69
38 64
38 56
38 55
38 54
38 53
38 52
38 51
38 50
38 46
38 44
38 43
38 42
38 41
38 40
38 39
37 78
37 77
37 75
37 54
37 53
37 52
37 51
37 50
37 41
37 40
37 39
37 38
36 96
36 94
36 86
36 76
36 75
36 73
36 69
36 64
36 56
36 55
36 54
36 53
36 51
36 39
36 38
36 37
35 80
35 78
35 77
35 76
35 75
35 74
35 73
35 69
35 64
35 63
35 57
35 56
35 55
35 54
35 53
35 52
35 51
35 38
35 37
35 36
34 96
34 88
34 86
34 76
34 75
34 73
34 70
34 69
34 68
34 67
34 66
34 65
34 64
34 63
34 58
34 57
34 56
34 55
34 54
34 53
34 52
34 38
34 36
34 35
33 69
33 64
33 56
33 54
33 53
33 37
33 36
33 35
33 34
32 96
32 94
32 88
32 73
32 71
32 70
32 69
32 68
32 67
32 64
32 58
32 56
32 55
32 54
32 38
32 36
32 35
32 34
32 33
31 69
31 68
31 67
31 66
31 64
31 56
31 36
31 34
31 33
31 32
30 73
30 69
30 68
30 67
30 66
30 65
30 64
30 63
30 58
30 56
30 55
30 54
30 36
30 34
30 33
30 32
30 31
29 76
29 73
29 69
29 67
29 66
29 65
29 64
29 63
29 58
29 56
29 55
29 54
29 53
29 35
29 34
29 33
29 32
29 31
29 30
28 69
28 64
28 55
28 53
28 37
28 36
28 35
28 34
28 33
28 31
28 30
28 29
27 65
27 63
27 35
27 34
27 33
27 29
27 28
26 78
26 53
26 51
26 37
26 33
26 28
26 27
25 80
25 29
25 27
25 26
24 80
24 79
24 78
24 76
24 53
24 35
24 27
24 26
24 25
23 83
23 80
23 79
23 78
23 77
23 76
23 75
23 74
23 64
23 57
23 55
23 54
23 53
23 52
23 51
23 38
23 37
23 36
23 35
23 34
23 33
23 29
23 28
23 27
23 26
23 25
23 24
22 76
22 69
22 65
22 64
22 63
22 56
22 55
22 53
22 35
22 34
22 30
22 29
22 28
22 27
22 26
22 25
22 24
22 23
21 80
21 76
21 65
21 63
21 29
21 27
21 25
21 24
21 23
21 22
20 85
20 83
20 82
20 81
20 80
20 79
20 78
20 77
20 76
20 75
20 74
20 57
20 55
20 53
20 52
20 51
20 35
20 25
20 24
20 23
20 22
20 21
19 86
19 85
19 83
19 82
19 80
19 78
19 77
19 76
19 75
19 74
19 73
19 72
19 69
19 64
19 63
19 58
19 57
19 56
19 55
19 54
19 53
19 52
19 51
19 38
19 37
19 36
19 35
19 34
19 32
19 30
19 29
19 24
19 23
19 22
19 21
19 20
18 76
18 69
18 65
18 64
18 63
18 62
18 58
18 57
18 56
18 55
18 53
18 35
18 34
18 30
18 29
18 27
18 25
18 23
18 22
18 21
18 20
18 19
17 82
17 80
17 76
17 74
17 63
17 55
17 25
17 24
17 22
17 21
17 20
17 19
17 18
16 86
16 85
16 84
16 83
16 82
16 81
16 80
16 79
16 77
16 76
16 75
16 74
16 73
16 72
16 64
16 63
16 57
16 55
16 54
16 53
16 52
16 48
16 46
16 38
16 35
16 23
16 21
16 20
16 19
16 18
16 17
15 85
15 82
15 76
15 74
15 73
15 72
15 64
15 63
15 62
15 61
15 60
15 59
15 58
15 57
15 56
15 55
15 53
15 35
15 29
15 22
15 19
15 18
15 17
15 16
14 74
14 65
14 64
14 63
14 62
14 61
14 58
14 57
14 55
14 21
14 19
14 18
14 17
14 16
14 15
13 85
13 82
13 81
13 80
13 76
13 74
13 63
13 57
13 21
13 20
13 18
13 17
13 16
13 15
13 14
12 98
12 86
12 85
12 84
12 83
12 82
12 81
12 76
12 75
12 74
12 73
12 72
12 59
12 57
12 55
12 54
12 52
12 48
12 47
12 46
12 20
12 19
12 17
12 16
12 15
12 14
12 13
11 85
11 82
11 74
11 72
11 64
11 63
11 62
11 61
11 60
11 59
11 58
11 57
11 56
11 55
11 19
11 18
11 16
11 15
11 14
11 13
11 12
10 82
10 63
10 61
10 57
10 17
10 15
10 14
10 13
10 12
10 11
9 85
9 82
9 76
9 74
9 57
9 17
9 16
9 14
9 13
9 12
9 11
9 10
8 85
8 74
8 61
8 57
8 14
8 13
8 12
8 11
8 10
8 9
7 98
7 89
7 87
7 86
7 85
7 84
7 82
7 76
7 74
7 73
7 72
7 71
7 70
7 64
7 63
7 61
7 60
7 59
7 58
7 57
7 56
7 55
7 16
7 15
7 14
7 13
7 12
7 11
7 10
7 9
7 8
6 89
6 88
6 87
6 85
6 74
6 73
6 72
6 71
6 70
6 68
6 64
6 61
6 60
6 59
6 58
6 57
6 56
6 15
6 12
6 11
6 8
6 7
5 99
5 90
5 89
5 87
5 72
5 71
5 59
5 7
5 6
4 99
4 97
4 90
4 89
4 88
4 87
4 72
4 71
4 59
4 6
4 5
3 99
3 97
3 90
3 87
3 85
3 59
3 12
3 7
3 6
3 5
3 4
2 99
2 98
2 87
2 86
2 85
2 84
2 82
2 76
2 75
2 74
2 73
2 72
2 57
2 55
2 47
2 46
2 44
2 16
2 15
2 13
2 12
2 11
2 9
2 8
2 7
2 6
2 3
1 85
1 82
1 74
1 72
1 57
1 16
1 13
1 12
1 11
1 10
1 9
1 8
1 7
1 6
1 3
1 2
0 99
0 8
0 3
0 1
